&user_inputs
run_time_info = T
m = 2969
n = 2699
p = 0
dt = 0.0001851851851851852
t_step_start = 0
t_step_stop = 32400
t_step_save = 270
model_eqns = 2
alt_soundspeed = F
num_fluids = 1
mpp_lim = F
mixture_err = T
time_stepper = 3
weno_order = 5
weno_eps = 1e-16
weno_Re_flux = T
weno_avg = T
avg_state = 2
mapped_weno = F
null_weights = F
mp_weno = F
riemann_solver = 1
wave_speeds = 1
viscous = T
fd_order = 4
bc_x%beg = -11
bc_x%end = -12
bc_y%beg = -11
bc_y%end = -12
ib = T
num_ibs = 1
ib_neighborhood_radius = 4
num_stl_models = 1
patch_ib(1)%geometry = 5
patch_ib(1)%model_id = 1
stl_models(1)%model_filepath = 'Diamond_Airfoil_2D_MFC.stl'
stl_models(1)%model_threshold = 0.9
patch_ib(1)%slip = F
precision = 2
prim_vars_wrt = T
ib_state_wrt = T
parallel_io = T
fluid_pp(1)%gamma = 2.5000000000000004
fluid_pp(1)%pi_inf = 0.0
fluid_pp(1)%Re(1) = 3333.3333333333335
&end/
