&user_inputs
m = 2969
n = 2699
p = 0
x_domain%beg = -5.0
x_domain%end = 6.0
y_domain%beg = -5.0
y_domain%end = 5.0
t_step_start = 0
num_patches = 1
model_eqns = 2
num_fluids = 1
mpp_lim = F
weno_order = 5
viscous = T
bc_x%beg = -11
bc_x%end = -12
bc_y%beg = -11
bc_y%end = -12
ib = T
num_ibs = 1
num_stl_models = 1
patch_ib(1)%geometry = 5
patch_ib(1)%model_id = 1
stl_models(1)%model_filepath = 'Diamond_Airfoil_2D_MFC.stl'
stl_models(1)%model_threshold = 0.9
patch_ib(1)%slip = F
precision = 2
parallel_io = T
fluid_pp(1)%gamma = 2.5000000000000004
fluid_pp(1)%pi_inf = 0.0
fluid_pp(1)%Re(1) = 3333.3333333333335
patch_icpp(1)%geometry = 3
patch_icpp(1)%x_centroid = 0.5
patch_icpp(1)%y_centroid = 0.0
patch_icpp(1)%length_x = 11.0
patch_icpp(1)%length_y = 10.0
patch_icpp(1)%vel(1) = 2.298133329356934
patch_icpp(1)%vel(2) = 1.9283628290596178
patch_icpp(1)%pres = 0.7142857142857143
patch_icpp(1)%alpha_rho(1) = 1.0
patch_icpp(1)%alpha(1) = 1.0
&end/
