&user_inputs
x_domain%beg = -5.0
x_domain%end = 6.0
y_domain%beg = -5.0
y_domain%end = 5.0
m = 989
n = 899
p = 0
t_step_start = 0
num_patches = 1
model_eqns = 2
num_fluids = 1
mpp_lim = F
weno_order = 5
viscous = F
bc_x%beg = -11
bc_x%end = -12
bc_y%beg = -6
bc_y%end = -6
ib = T
num_ibs = 1
patch_ib(1)%geometry = 6
patch_ib(1)%x_centroid = 0.0
patch_ib(1)%y_centroid = 0.0
patch_ib(1)%slip = T
precision = 2
parallel_io = T
fluid_pp(1)%gamma = 2.5
fluid_pp(1)%pi_inf = 0.0
patch_icpp(1)%geometry = 3
patch_icpp(1)%x_centroid = 0.5
patch_icpp(1)%y_centroid = 0.0
patch_icpp(1)%length_x = 11.0
patch_icpp(1)%length_y = 10.0
patch_icpp(1)%vel(1) = 2.7
patch_icpp(1)%vel(2) = 0.0
patch_icpp(1)%pres = 0.7142857142857143
patch_icpp(1)%alpha_rho(1) = 1.0
patch_icpp(1)%alpha(1) = 1.0
patch_ib(1)%length_x = 1.0
patch_ib(1)%length_y = 0.6
&end/
