&user_inputs
run_time_info = T
m = 989
n = 899
p = 0
dt = 0.0006006006006006006
t_step_start = 0
t_step_stop = 13320
t_step_save = 444
model_eqns = 2
alt_soundspeed = F
num_fluids = 1
mpp_lim = F
mixture_err = T
time_stepper = 3
weno_order = 5
weno_eps = 1e-16
weno_Re_flux = F
weno_avg = T
avg_state = 2
mapped_weno = F
null_weights = F
mp_weno = F
riemann_solver = 2
wave_speeds = 1
viscous = F
fd_order = 4
bc_x%beg = -11
bc_x%end = -12
bc_y%beg = -6
bc_y%end = -6
ib = T
num_ibs = 1
ib_neighborhood_radius = 4
patch_ib(1)%geometry = 2
patch_ib(1)%x_centroid = 0.0
patch_ib(1)%y_centroid = 0.0
patch_ib(1)%radius = 0.5
patch_ib(1)%slip = T
precision = 2
prim_vars_wrt = T
ib_state_wrt = T
parallel_io = T
fluid_pp(1)%gamma = 2.5000000000000004
fluid_pp(1)%pi_inf = 0.0
&end/
